c --- [ banner ] -------------------------------------------------------------
c 
c CaDiCaL Radically Simplified CDCL SAT Solver
c Copyright (c) 2016-2021 A. Biere, M. Fleury, N. Froleyks
c 
c Version 1.5.2 a5f15211db36c3956764e18194dd5bd63bf3b5e6
c g++ (GCC) 9.3.0 -Wall -Wextra -O3 -DNDEBUG
c Fri Oct 21 01:27:37 EDT 2022 Linux gra-login3 3.10.0-1160.66.1.el7.x86_64 x86_64
c 
c --- [ limit ] --------------------------------------------------------------
c 
c setting conflict limit to 200000 conflicts (due to '200000')
c 
c --- [ parsing input ] ------------------------------------------------------
c 
c reading DIMACS file from '33.cubes6893.adj'
c opening file to read '33.cubes6893.adj'
c found 'p cnf 6160 1595477' header
c parsed 1595477 clauses in 16.11 seconds process time
c closing file '33.cubes6893.adj'
c after reading 1457566793 bytes 1390.0 MB
c 
c --- [ options ] ------------------------------------------------------------
c 
c all options are set to their default value
c 
c --- [ solving ] ------------------------------------------------------------
c 
c time measured in process time since initialization
c 
c  seconds    reductions  redundant   irredundant
c          MB     restarts       trail       variables
c            level   conflicts       glue         remaining
c 
c * 16.11 1380  0 0   0    0    0  0% 0 1595422 2331 38%
c { 17.13 1434  0 0   0    0    0  0% 0 1595422 2331 38%
c i 19.65 1497 109 0  14  255   87 22% 5 1595422 2323 38%
c i 20.27 1504 103 0  15  276  100 22% 6 1595422 2322 38%
c - 25.01 1462 101 1  23  301   84 22% 7 348917 2322 38%
c i 25.63 1376 98 1  35  349  121 23% 11 348917 2321 38%
c i 27.60 1378 59 1  98  882  306 22% 16 348917 2291 37%
c i 27.70 1378 59 1 106  911  333 23% 16 348917 2290 37%
c i 28.40 1379 61 1 121  975  389 23% 17 348917 2289 37%
c i 28.44 1379 61 1 122  977  390 23% 17 348917 2288 37%
c } 28.69 1379 62 1 127 1000  409 23% 18 348917 2288 37%
c [ 28.69 1379  0 1 127 1000  409  0% 0 348917 2288 37%
c O 28.70 1379 80 1 127 1005  412 26% 62 348917 2288 37%
c i 28.87 1379 45 1 127 1011  416 28% 33 348917 2287 37%
c i 28.88 1379 40 1 127 1013  417 28% 29 348917 2286 37%
c i 28.89 1379 36 1 127 1015  418 29% 27 348917 2285 37%
c i 28.94 1379 32 1 127 1026  428 30% 23 348917 2284 37%
c i 28.99 1379 30 1 127 1046  440 31% 22 348917 2283 37%
c i 29.00 1379 29 1 127 1048  441 31% 22 348917 2282 37%
c i 29.00 1379 28 1 127 1052  444 30% 20 348917 2281 37%
c 
c  seconds    reductions  redundant   irredundant
c          MB     restarts       trail       variables
c            level   conflicts       glue         remaining
c 
c i 29.00 1379 27 1 127 1053  444 30% 20 348917 2280 37%
c i 29.00 1379 27 1 127 1055  445 30% 19 348917 2279 37%
c i 29.01 1379 26 1 127 1060  447 30% 19 348917 2278 37%
c i 29.01 1379 25 1 127 1063  447 30% 18 348917 2277 37%
c i 29.05 1379 22 1 127 1127  495 32% 17 348917 2276 37%
c i 29.06 1379 22 1 127 1133  500 32% 17 348917 2275 37%
c i 29.07 1379 22 1 127 1146  507 32% 17 348917 2274 37%
c i 29.13 1379 23 1 127 1201  555 32% 18 348917 2273 37%
c i 29.16 1379 24 1 127 1221  570 32% 19 348917 2272 37%
c i 29.16 1379 24 1 127 1222  570 32% 19 348917 2271 37%
c i 29.16 1379 24 1 127 1225  571 32% 19 348917 2270 37%
c - 29.67 1506 24 2 127 1226  550 32% 19 286195 2270 37%
c i 29.78 1506 24 2 127 1253  573 32% 19 286195 2269 37%
c i 29.91 1506 23 2 127 1538  778 31% 19 286195 2268 37%
c i 29.91 1506 23 2 127 1555  787 31% 19 286195 2267 37%
c i 29.92 1506 23 2 127 1592  808 31% 19 286195 2266 37%
c i 29.97 1506 22 2 127 1738  899 32% 19 286195 2265 37%
c ] 30.06 1506 21 2 128 2041 1095 32% 18 286195 2265 37%
c 1 30.06 1506 21 2 128 2041 1095 32% 18 286195 2265 37%
c 
c --- [ writing output ] -----------------------------------------------------
c 
c writing simplified CNF to DIMACS file 'simp/33.cubes6893.adj.simp1'
c * 30.06 1506 21 2 128 2041 1095 32% 18 286195 2265 37%
c opening file to write 'simp/33.cubes6893.adj.simp1'
c writing 'p cnf 6160 286180' header
c closing file 'simp/33.cubes6893.adj.simp1'
c after writing 144536384 bytes 137.8 MB
c wrote 286180 clauses in 0.87 seconds process time
c 
c --- [ writing extension ] --------------------------------------------------
c 
c writing extension stack to 'simp/33.cubes6893.adj.ext1'
c opening file to write 'simp/33.cubes6893.adj.ext1'
c closing file 'simp/33.cubes6893.adj.ext1'
c after writing 11180 bytes 0.0 MB
c wrote 751 witnesses in 0.00 seconds process time
c 
c --- [ result ] -------------------------------------------------------------
c 
s SATISFIABLE
c 
c --- [ run-time profiling ] -------------------------------------------------
c 
c process time taken by individual solving procedures
c (percentage relative to process time for solving)
c 
c        16.11  115.55% parse
c        13.95  100.00% search
c        11.56   82.92% unstable
c         1.37    9.81% stable
c         1.01    7.27% lucky
c         0.00    0.00% simplify
c   =================================
c        13.95   45.08% solve
c 
c last line shows process time for solving
c (percentage relative to total process time)
c 
c --- [ statistics ] ---------------------------------------------------------
c 
c chronological:               383        18.77 %  of conflicts
c conflicts:                  2041       146.36    per second
c decisions:                 17974      1288.87    per second
c fixed:                       751        12.19 %  of all variables
c learned:                    2005        98.24 %  per conflict
c learned_lits:             325175       100.00 %  learned literals
c minimized:                     0         0.00 %  learned literals
c shrunken:                 160021        49.21 %  learned literals
c minishrunken:              35613        10.95 %  learned literals
c propagations:             315537         0.02 M  per second
c reduced:                      21         1.03 %  per conflict
c rephased:                      1      2041.00    interval
c restarts:                    128        15.95    interval
c stabilizing:                   1        51.00 %  of conflicts
c subsumed:                    820         0.03 %  of all clauses
c 
c seconds are measured in process time for solving
c 
c --- [ resources ] ----------------------------------------------------------
c 
c total process time since initialization:        30.93    seconds
c total real time since initialization:           31.07    seconds
c maximum resident set size of process:         1512.55    MB
c 
c --- [ shutting down ] ------------------------------------------------------
c 
c exit 10
WARNING! DIMACS header mismatch: wrong number of variables.
============================[ Problem Statistics ]=============================
|                                                                             |
|  Number of variables:          6120                                         |
|  Number of clauses:          286180                                         |
|  Parse time:                   1.95 s                                       |
|  Simplification time:          0.06 s                                       |
|                                                                             |
============================[ Search Statistics ]====================================================
| Conflicts |          ORIGINAL         |          LEARNT          | Num Sols |      SUBGRAPHS      |
|           |    Vars  Clauses Literals |    Limit  Clauses Lit/Cl |          | Canonical Noncanon. |
=====================================================================================================
|       108 |    6023   286188 31424926 |     2000      103    157 |        0 |        16         8 |
|       259 |    6023   286189 31425120 |     2000      254    154 |        0 |        24         9 |
|       485 |    6022   286190 31425142 |     2000      479    157 |        0 |        24        10 |
|       839 |    6013   286207 31425693 |     2000      824    143 |        0 |        35        27 |
|      1410 |    6001   286272 31427102 |     2000     1383    126 |        0 |        71        92 |
|      2217 |    5999   286320 31428220 |     3586     1202     67 |        0 |        87       140 |
|      3377 |    5995   286341 31428863 |     3586     2358     82 |        0 |        98       161 |
|      5103 |    5995   286359 31429392 |     4994     2297     70 |        0 |       129       179 |
|      7701 |    5995   286395 31430395 |     4994     4895     91 |        0 |       184       215 |
|     11734 |    5995   286584 31435212 |     7551     3285     52 |        0 |       270       404 |
|     18720 |    5993   287804 31457117 |     8780     6500     58 |        0 |       622      1624 |
|     36626 |    5991   297061 31641748 |    12404     9430     43 |        0 |      2507     10881 |
|     56079 |    5991   303540 31763856 |    16011     8490     29 |        0 |      3272     17360 |
|     80809 |    5991   308809 31880232 |    18408    16617     59 |        0 |      4088     22629 |
|    166612 |    5991   365420 33051519 |    26813    25425     23 |        0 |     13178     79240 |
|    215077 |    5991   370096 33148522 |    31617    16694     22 |        0 |     13938     83916 |
|    296136 |    5930   377416 33294695 |    36409    27220     57 |        0 |     16216     99291 |
|    427324 |    5929   410078 33924530 |    44788    22112     22 |        0 |     21460    131953 |
|    583986 |    5929   418948 34082718 |    52009    35395     48 |        0 |     22791    140826 |
|    809136 |    5929   422415 34168977 |    61617    35753     39 |        0 |     24099    144293 |
|   1183906 |    5929   464660 35107633 |    74817    38723     34 |        0 |     27551    186538 |
|   1754164 |    5929   536130 36618764 |    90411    75975     35 |        0 |     34569    258008 |
|   2545295 |    5929   579079 37634317 |   109618    71913     52 |        0 |     39228    300957 |
|   3898043 |    5929   809553 41445228 |   136021    80464     35 |        0 |     59808    531431 |
|   5833320 |    5921   508359 35830662 |   164848   134568     74 |        0 |     78500    783297 |
=====================================================================================================
Number of solutions   : 0
Canonical subgraphs   : 107110         (24 /sec)
          order  3    : 1              (250000 /sec)
          order  4    : 1              (1000000 /sec)
          order  5    : 1              (250000 /sec)
          order  6    : 1              (55556 /sec)
          order  7    : 2              (10256 /sec)
          order  8    : 5              (2414 /sec)
          order  9    : 12             (561 /sec)
          order 10    : 55             (187 /sec)
          order 11    : 295            (61 /sec)
          order 12    : 1573           (30 /sec)
          order 13    : 10455          (24 /sec)
          order 14    : 83255          (23 /sec)
          order 15    : 8041           (24 /sec)
          order 16    : 3277           (22 /sec)
          order 17    : 133            (13 /sec)
          order 18    : 3              (12 /sec)
          order 19    : 0              (-nan /sec)
          order 20    : 0              (-nan /sec)
          order 21    : 0              (-nan /sec)
          order 22    : 0              (-nan /sec)
Noncanonical subgraphs: 1260190        (192 /sec)
          order  3    : 0              (-nan /sec)
          order  4    : 0              (-nan /sec)
          order  5    : 0              (-nan /sec)
          order  6    : 0              (-nan /sec)
          order  7    : 0              (-nan /sec)
          order  8    : 0              (-nan /sec)
          order  9    : 0              (-nan /sec)
          order 10    : 0              (-nan /sec)
          order 11    : 0              (-nan /sec)
          order 12    : 0              (-nan /sec)
          order 13    : 37324          (3209 /sec)
          order 14    : 153259         (1127 /sec)
          order 15    : 1049111        (166 /sec)
          order 16    : 15535          (200 /sec)
          order 17    : 4835           (178 /sec)
          order 18    : 123            (125 /sec)
          order 19    : 3              (72 /sec)
          order 20    : 0              (-nan /sec)
          order 21    : 0              (-nan /sec)
Canonicity checking   : 4545.12 s
Noncanonicity checking: 6571.98 s
Total canonicity time : 11117.1 s
database reductions   : 160
restarts              : 12797
conflicts             : 8000720        (516 /sec)
decisions             : 10944422       (0.00 % random) (705 /sec)
propagations          : 890129370      (57372 /sec)
conflict literals     : 797274502      (52.92 % deleted)
actual reward         : 0.105825
Memory used           : 661.00 MB
CPU time              : 15514.9 s

UNSATISFIABLE
